(set-info :smt-lib-version 2.6)
(set-logic LRA)
(set-info :source |
   Monniaux, David; Quantifier Elimination by Lazy Model Enumeration, CAV 2010
|)
(set-info :category "random")
; ./Mjollnir_examples/B1/formula_082.m
(set-info :status sat)
(assert
 (forall ((|v9:0| Real) )(exists ((|v8:1| Real) )(forall ((|v7:2| Real) )(exists ((|v6:3| Real) )(forall ((|v5:4| Real) )(exists ((|v4:5| Real) )(forall ((|v3:6| Real) )(exists ((|v2:7| Real) )(forall ((|v1:8| Real) )(exists ((|v0:9| Real) )(let ((?x97 (- 13)))
(let ((?x254 (+ (+ (* 2 |v2:7|) (* (- 4) |v6:3|)) (* (- 8) |v8:1|))))
(let (($x249 (<= (+ (+ |v2:7| (* ?x97 |v2:7|)) (* (- 10) |v3:6|)) (- 19))))
(let ((?x32 5))
(let ((?x56 0))
(let ((?x144 (* ?x56 |v4:5|)))
(let (($x241 (<= (+ (+ (* 17 |v9:0|) (* (- 14) |v1:8|)) ?x144) ?x32)))
(let ((?x216 (- 8)))
(let ((?x14 4))
(let ((?x151 (* ?x14 |v3:6|)))
(let (($x237 (<= (+ (+ (* (- 3) |v3:6|) (* (- 10) |v8:1|)) ?x151) ?x216)))
(let ((?x45 16))
(let ((?x228 (+ (+ (* (- 20) |v1:8|) (* ?x14 |v8:1|)) (* 3 |v4:5|))))
(let ((?x21 (- 20)))
(let ((?x223 (+ (+ (* ?x216 |v5:4|) (* 8 |v3:6|)) (* (- 18) |v0:9|))))
(let ((?x211 (+ (+ (* (- 14) |v3:6|) (* (- 1) |v1:8|)) (* (- 17) |v1:8|))))
(let ((?x18 6))
(let ((?x204 (+ (+ (* 19 |v3:6|) (* (- 3) |v3:6|)) (* (- 5) |v2:7|))))
(let (($x231 (and (and (<= ?x204 ?x18) (<= ?x211 11)) (or (<= ?x223 ?x21) (<= ?x228 ?x45)))))
(let ((?x75 3))
(let ((?x118 15))
(let ((?x192 (+ (+ (* (- 9) |v8:1|) (* (- 18) |v5:4|)) (* ?x56 |v3:6|))))
(let (($x198 (or (<= ?x192 ?x118) (<= (+ (+ (* (- 2) |v6:3|) (* ?x18 |v4:5|)) |v4:5|) ?x75))))
(let ((?x183 (+ (+ (* (- 1) |v3:6|) (* 12 |v7:2|)) (* (- 11) |v6:3|))))
(let ((?x159 (- 2)))
(let (($x174 (<= (+ (+ (* ?x18 |v0:9|) (* (- 18) |v1:8|)) (* ?x32 |v6:3|)) ?x159)))
(let (($x165 (<= (+ (+ (* ?x75 |v7:2|) (* ?x159 |v4:5|)) (* ?x21 |v8:1|)) 18)))
(let ((?x10 17))
(let (($x166 (and (<= (+ (+ (* (- 17) |v9:0|) ?x151) (* ?x21 |v2:7|)) ?x10) $x165)))
(let ((?x141 (+ (+ (* (- 11) |v7:2|) (* ?x45 |v8:1|)) (* 10 |v5:4|))))
(let (($x149 (and (<= ?x141 ?x75) (<= (+ (+ ?x144 |v1:8|) (* 20 |v4:5|)) (- 5)))))
(let (($x259 (or (and (or $x149 $x166) (and (or $x174 (<= ?x183 19)) $x198)) (and $x231 (and (and $x237 $x241) (and $x249 (<= ?x254 ?x97)))))))
(let ((?x126 2))
(let (($x132 (<= (+ (+ (* ?x126 |v5:4|) (* ?x10 |v2:7|)) (* (- 17) |v0:9|)) ?x126)))
(let (($x124 (<= (+ (+ (* (- 7) |v7:2|) (* ?x118 |v4:5|)) (* ?x118 |v2:7|)) (- 3))))
(let ((?x108 (+ (+ (* (- 11) |v3:6|) (* (- 18) |v2:7|)) (* (- 17) |v8:1|))))
(let ((?x99 (+ (+ (* (- 14) |v0:9|) (* (- 17) |v3:6|)) (* ?x97 |v9:0|))))
(let ((?x88 (+ (+ (* ?x21 |v4:5|) (* 20 |v4:5|)) (* 7 |v1:8|))))
(let (($x78 (<= (+ (+ (* ?x18 |v4:5|) (* (- 4) |v4:5|)) (* ?x75 |v9:0|)) ?x56)))
(let ((?x64 (- 18)))
(let ((?x62 (* 19 |v3:6|)))
(let ((?x47 (+ (+ (* 9 |v0:9|) (* (- 16) |v0:9|)) (* ?x45 |v9:0|))))
(let (($x66 (and (<= ?x47 14) (<= (+ (+ (* (- 17) |v5:4|) (* ?x56 |v7:2|)) ?x62) ?x64))))
(let (($x36 (<= (+ (+ (* ?x14 |v8:1|) (* (- 15) |v0:9|)) (* ?x32 |v9:0|)) 9)))
(let (($x37 (or (<= (+ (+ (* ?x10 |v9:0|) (* ?x14 |v5:4|)) (* ?x18 |v9:0|)) ?x21) $x36)))
(let (($x112 (and (or $x37 $x66) (or (or $x78 (<= ?x88 ?x75)) (or (<= ?x99 ?x56) (<= ?x108 ?x18))))))
(or (or $x112 (and $x124 $x132)) $x259))))))))))))))))))))))))))))))))))))))))))))))))
)
)
)
)
)
)
)
)
)
)
(check-sat)
(exit)

